NAME (null)_copy
ROWS
 N  OBJ
 L  X21     
 L  X17     
 E  X18     
 L  X19     
 L  X20     
 E  X44     
 L  X47     
 L  X49     
 L  X51     
COLUMNS
    X01       OBJ       -2.1940000000000004e-01
    X01       X44       0.301
    X01       X21       -1
    X06       X51       1.06
    X06       X47       -1
    X06       X49       0.301
    X06       X17       1
    X07       X51       1.06
    X07       X47       -1
    X07       X49       0.313
    X07       X18       1
    X08       X51       0.96
    X08       X47       -1
    X08       X49       0.313
    X08       X19       1
    X09       X51       0.86
    X09       X47       -1
    X09       X49       0.326
    X09       X20       1
    X10       X18       9.9077954735959750e-01
    X10       X17       -1
    X12       X18       1.0092204526404023e+00
    X12       X19       -1
    X13       X18       1.0180217937971499e+00
    X13       X20       -1
    X14       OBJ       -0.32
    X14       X47       1
    X14       X21       1.4
    X22       OBJ       -0.5564
    X22       X44       -1
    X22       X21       0.109
    X25       OBJ       0.6
    X25       X44       1
    X25       X18       -4.1911148365465212e-01
    X36       OBJ       -0.48
    X36       X49       -1
    X36       X44       1.4
RHS
    RHS1      X17       80
    RHS1      X49       44
    RHS1      X51       300
BOUNDS
 UP BND1      X01       80
 UP BND1      X06       2.8330288679245285e+02
 UP BND1      X07       2.8330288679245285e+02
 UP BND1      X08       312.8135
 UP BND1      X09       3.4918704651162790e+02
 UP BND1      X14       57.201
 UP BND1      X22       500
 UP BND1      X25       500.501
 UP BND1      X36       3.5750100000000003e+02
ENDATA
